(benchmark gametime
:status unknown
:logic QF_AUFBV
:extrafuns ((gtINDEX61  BitVec[32]))
:extrafuns ((gtFIELD__bitsForTID0__gtAGG____anonstruct_D_Work_4  Array[32:32]))
:extrafuns ((gtINDEX62  BitVec[32]))
:extrafuns ((gtAGG__rtDWork  BitVec[32]))
:extrafuns ((gtINDEX59  BitVec[32]))
:extrafuns ((gtINDEX60  BitVec[32]))
:extrafuns ((gtINDEX58  BitVec[32]))
:extrafuns ((gtINDEX57  BitVec[32]))
:extrafuns ((gtINDEX56  BitVec[32]))
:extrafuns ((gtINDEX55  BitVec[32]))
:extrafuns ((gtINDEX54  BitVec[32]))
:extrafuns ((gtINDEX53  BitVec[32]))
:extrafuns ((gtINDEX52  BitVec[32]))
:extrafuns ((gtINDEX51  BitVec[32]))
:extrafuns ((gtINDEX49  BitVec[32]))
:extrafuns ((gtINDEX50  BitVec[32]))
:extrafuns ((gtINDEX47  BitVec[32]))
:extrafuns ((gtINDEX48  BitVec[32]))
:extrafuns ((gtINDEX46  BitVec[32]))
:extrafuns ((gtINDEX44  BitVec[32]))
:extrafuns ((gtINDEX45  BitVec[32]))
:extrafuns ((gtINDEX42  BitVec[32]))
:extrafuns ((gtINDEX43  BitVec[32]))
:extrafuns ((gtINDEX41  BitVec[32]))
:extrafuns ((gtINDEX40  BitVec[32]))
:extrafuns ((gtINDEX38  BitVec[32]))
:extrafuns ((gtINDEX39  BitVec[32]))
:extrafuns ((gtINDEX36  BitVec[32]))
:extrafuns ((gtINDEX37  BitVec[32]))
:extrafuns ((gtINDEX34  BitVec[32]))
:extrafuns ((gtINDEX35  BitVec[32]))
:extrafuns ((gtINDEX32  BitVec[32]))
:extrafuns ((gtINDEX33  BitVec[32]))
:extrafuns ((gtINDEX30  BitVec[32]))
:extrafuns ((gtINDEX31  BitVec[32]))
:extrafuns ((gtINDEX29  BitVec[32]))
:extrafuns ((gtINDEX27  BitVec[32]))
:extrafuns ((gtINDEX28  BitVec[32]))
:extrafuns ((gtINDEX26  BitVec[32]))
:extrafuns ((gtINDEX24  BitVec[32]))
:extrafuns ((gtINDEX25  BitVec[32]))
:extrafuns ((gtINDEX22  BitVec[32]))
:extrafuns ((gtINDEX23  BitVec[32]))
:extrafuns ((gtINDEX21  BitVec[32]))
:extrafuns ((gtINDEX19  BitVec[32]))
:extrafuns ((gtINDEX20  BitVec[32]))
:extrafuns ((gtINDEX18  BitVec[32]))
:extrafuns ((gtINDEX17  BitVec[32]))
:extrafuns ((gtINDEX16  BitVec[32]))
:extrafuns ((gtINDEX14  BitVec[32]))
:extrafuns ((gtINDEX15  BitVec[32]))
:extrafuns ((gtINDEX12  BitVec[32]))
:extrafuns ((gtINDEX13  BitVec[32]))
:extrafuns ((gtINDEX10  BitVec[32]))
:extrafuns ((gtINDEX11  BitVec[32]))
:extrafuns ((gtINDEX9  BitVec[32]))
:extrafuns ((gtINDEX8  BitVec[32]))
:extrafuns ((gtINDEX7  BitVec[32]))
:extrafuns ((gtINDEX6  BitVec[32]))
:extrafuns ((gtINDEX4  BitVec[32]))
:extrafuns ((gtINDEX5  BitVec[32]))
:extrafuns ((gtINDEX2  BitVec[32]))
:extrafuns ((gtINDEX3  BitVec[32]))
:extrafuns ((gtINDEX0  BitVec[32]))
:extrafuns ((gtINDEX1  BitVec[32]))
:extrafuns ((gtFIELD__is_Eng__gtAGG____anonstruct_bitsForTID0_5  Array[32:1]))
:extrafuns ((gtFIELD__is_Eng__gtAGG____anonstruct_bitsForTID0_5_1_  Array[32:1]))
:extrafuns ((gtFIELD__sh_rst__gtAGG____anonstruct_D_Work_4_1_  Array[32:32]))
:extrafuns ((gtFIELD__sh_rst__gtAGG____anonstruct_D_Work_4_2_  Array[32:32]))
:extrafuns ((gtFIELD__sent__gtAGG____anonstruct_D_Work_4  Array[32:32]))
:extrafuns ((gtFIELD__is_active_Eng__gtAGG____anonstruct_bitsForTID0_5  Array[32:1]))
:extrafuns ((gtFIELD__temporalCounter_i5__gtAGG____anonstruct_D_Work_4  Array[32:32]))
:extrafuns ((gtFIELD__temporalCounter_i5__gtAGG____anonstruct_D_Work_4_1_  Array[32:32]))
:extrafuns ((gtFIELD__is_PURI__gtAGG____anonstruct_bitsForTID0_5  Array[32:2]))
:extrafuns ((gtFIELD__is_PURI__gtAGG____anonstruct_bitsForTID0_5_1_  Array[32:2]))
:extrafuns ((gtFIELD__URIex__gtAGG____anonstruct_bitsForTID0_5  Array[32:1]))
:extrafuns ((gtFIELD__URIex__gtAGG____anonstruct_bitsForTID0_5_1_  Array[32:1]))
:extrafuns ((gtFIELD__sh_rst__gtAGG____anonstruct_D_Work_4  Array[32:32]))
:extrafuns ((gtFIELD__n_t_a__gtAGG____anonstruct_D_Work_4  Array[32:32]))
:extrafuns ((gtFIELD__n_t_a__gtAGG____anonstruct_D_Work_4_1_  Array[32:32]))
:extrafuns ((sfEvent_  BitVec[32]))
:extrafuns ((gtFIELD__is_active_PURI__gtAGG____anonstruct_bitsForTID0_5  Array[32:1]))
:extrafuns ((gtFIELD__is_PVRP__gtAGG____anonstruct_bitsForTID0_5  Array[32:2]))
:extrafuns ((gtFIELD__is_active_PVRP__gtAGG____anonstruct_bitsForTID0_5  Array[32:1]))
:extrafuns ((gtFIELD__temporalCounter_i3__gtAGG____anonstruct_D_Work_4  Array[32:32]))
:extrafuns ((gtFIELD__temporalCounter_i3__gtAGG____anonstruct_D_Work_4_1_  Array[32:32]))
:extrafuns ((gtFIELD__is_PPVARP__gtAGG____anonstruct_bitsForTID0_5  Array[32:2]))
:extrafuns ((gtFIELD__is_PPVARP__gtAGG____anonstruct_bitsForTID0_5_1_  Array[32:2]))
:extrafuns ((gtFIELD__n_t_b__gtAGG____anonstruct_D_Work_4  Array[32:32]))
:extrafuns ((gtFIELD__n_t_b__gtAGG____anonstruct_D_Work_4_1_  Array[32:32]))
:extrafuns ((gtFIELD__is_active_PPVARP__gtAGG____anonstruct_bitsForTID0_5  Array[32:1]))
:extrafuns ((gtFIELD__temporalCounter_i2__gtAGG____anonstruct_D_Work_4  Array[32:32]))
:extrafuns ((gtFIELD__temporalCounter_i2__gtAGG____anonstruct_D_Work_4_1_  Array[32:32]))
:extrafuns ((gtFIELD__is_PLRI__gtAGG____anonstruct_bitsForTID0_5  Array[32:2]))
:extrafuns ((gtFIELD__is_PLRI__gtAGG____anonstruct_bitsForTID0_5_1_  Array[32:2]))
:extrafuns ((gtFIELD__n_t_n__gtAGG____anonstruct_D_Work_4  Array[32:32]))
:extrafuns ((gtFIELD__n_t_n__gtAGG____anonstruct_D_Work_4_1_  Array[32:32]))
:extrafuns ((gtFIELD__comm__gtAGG____anonstruct_D_Work_4  Array[32:32]))
:extrafuns ((gtFIELD__is_active_PLRI__gtAGG____anonstruct_bitsForTID0_5  Array[32:1]))
:extrafuns ((gtFIELD__is_PAVI__gtAGG____anonstruct_bitsForTID0_5  Array[32:3]))
:extrafuns ((gtFIELD__is_PAVI__gtAGG____anonstruct_bitsForTID0_5_1_  Array[32:3]))
:extrafuns ((gtFIELD__is_active_PAVI__gtAGG____anonstruct_bitsForTID0_5  Array[32:1]))
:extrapreds ((constraint114 ))
:extrapreds ((constraint113 ))
:extrapreds ((constraint112 ))
:extrapreds ((constraint111 ))
:extrapreds ((constraint110 ))
:extrapreds ((constraint109 ))
:extrapreds ((constraint108 ))
:extrapreds ((constraint107 ))
:extrapreds ((constraint106 ))
:extrapreds ((constraint105 ))
:extrapreds ((constraint104 ))
:extrapreds ((constraint103 ))
:extrapreds ((constraint102 ))
:extrapreds ((constraint101 ))
:extrapreds ((constraint100 ))
:extrapreds ((constraint99 ))
:extrapreds ((constraint98 ))
:extrapreds ((constraint97 ))
:extrapreds ((constraint96 ))
:extrapreds ((constraint95 ))
:extrapreds ((constraint94 ))
:extrapreds ((constraint93 ))
:extrapreds ((constraint92 ))
:extrapreds ((constraint91 ))
:extrapreds ((constraint90 ))
:extrapreds ((constraint89 ))
:extrapreds ((constraint88 ))
:extrapreds ((constraint87 ))
:extrapreds ((constraint86 ))
:extrapreds ((constraint85 ))
:extrapreds ((constraint84 ))
:extrapreds ((constraint83 ))
:extrapreds ((constraint82 ))
:extrapreds ((constraint81 ))
:extrapreds ((constraint80 ))
:extrapreds ((constraint79 ))
:extrapreds ((constraint78 ))
:extrapreds ((constraint77 ))
:extrapreds ((constraint76 ))
:extrapreds ((constraint75 ))
:extrapreds ((constraint74 ))
:extrapreds ((constraint73 ))
:extrapreds ((constraint72 ))
:extrapreds ((constraint71 ))
:extrapreds ((constraint70 ))
:extrapreds ((constraint69 ))
:extrapreds ((constraint68 ))
:extrapreds ((constraint67 ))
:extrapreds ((constraint66 ))
:extrapreds ((constraint65 ))
:extrapreds ((constraint64 ))
:extrapreds ((constraint63 ))
:extrapreds ((constraint62 ))
:extrapreds ((constraint61 ))
:extrapreds ((constraint60 ))
:extrapreds ((constraint59 ))
:extrapreds ((constraint58 ))
:extrapreds ((constraint57 ))
:extrapreds ((constraint56 ))
:extrapreds ((constraint55 ))
:extrapreds ((constraint54 ))
:extrapreds ((constraint53 ))
:extrapreds ((constraint52 ))
:extrapreds ((constraint51 ))
:extrapreds ((constraint50 ))
:extrapreds ((constraint49 ))
:extrapreds ((constraint48 ))
:extrapreds ((constraint47 ))
:extrapreds ((constraint46 ))
:extrapreds ((constraint45 ))
:extrapreds ((constraint44 ))
:extrapreds ((constraint43 ))
:extrapreds ((constraint42 ))
:extrapreds ((constraint41 ))
:extrapreds ((constraint40 ))
:extrapreds ((constraint39 ))
:extrapreds ((constraint38 ))
:extrapreds ((constraint37 ))
:extrapreds ((constraint36 ))
:extrapreds ((constraint35 ))
:extrapreds ((constraint34 ))
:extrapreds ((constraint33 ))
:extrapreds ((constraint32 ))
:extrapreds ((constraint31 ))
:extrapreds ((constraint30 ))
:extrapreds ((constraint29 ))
:extrapreds ((constraint28 ))
:extrapreds ((constraint27 ))
:extrapreds ((constraint26 ))
:extrapreds ((constraint25 ))
:extrapreds ((constraint24 ))
:extrapreds ((constraint23 ))
:extrapreds ((constraint22 ))
:extrapreds ((constraint21 ))
:extrapreds ((constraint20 ))
:extrapreds ((constraint19 ))
:extrapreds ((constraint18 ))
:extrapreds ((constraint17 ))
:extrapreds ((constraint16 ))
:extrapreds ((constraint15 ))
:extrapreds ((constraint14 ))
:extrapreds ((constraint13 ))
:extrapreds ((constraint12 ))
:extrapreds ((constraint11 ))
:extrapreds ((constraint10 ))
:extrapreds ((constraint9 ))
:extrapreds ((constraint8 ))
:extrapreds ((constraint7 ))
:extrapreds ((constraint6 ))
:extrapreds ((constraint5 ))
:extrapreds ((constraint4 ))
:extrapreds ((constraint3 ))
:extrapreds ((constraint2 ))
:extrapreds ((constraint1 ))
:extrapreds ((constraint0 ))
:formula
(flet ($x577 (and constraint0 constraint1 constraint2 constraint3 constraint4 constraint5 constraint6 constraint7 constraint8 constraint9 constraint10 constraint11 constraint12 constraint13 constraint14 constraint15 constraint16 constraint17 constraint18 constraint19 constraint20 constraint21 constraint22 constraint23 constraint24 constraint25 constraint26 constraint27 constraint28 constraint29 constraint30 constraint31 constraint32 constraint33 constraint34 constraint35 constraint36 constraint37 constraint38 constraint39 constraint40 constraint41 constraint42 constraint43 constraint44 constraint45 constraint46 constraint47 constraint48 constraint49 constraint50 constraint51 constraint52 constraint53 constraint54 constraint55 constraint56 constraint57 constraint58 constraint59 constraint60 constraint61 constraint62 constraint63 constraint64 constraint65 constraint66 constraint67 constraint68 constraint69 constraint70 constraint71 constraint72 constraint73 constraint74 constraint75 constraint76 constraint77 constraint78 constraint79 constraint80 constraint81 constraint82 constraint83 constraint84 constraint85 constraint86 constraint87 constraint88 constraint89 constraint90 constraint91 constraint92 constraint93 constraint94 constraint95 constraint96 constraint97 constraint98 constraint99 constraint100 constraint101 constraint102 constraint103 constraint104 constraint105 constraint106 constraint107 constraint108 constraint109 constraint110 constraint111 constraint112 constraint113 constraint114))
(flet ($x345 (= gtINDEX62 (select gtFIELD__bitsForTID0__gtAGG____anonstruct_D_Work_4 gtINDEX61)))
(flet ($x341 (= gtINDEX60 (select gtFIELD__bitsForTID0__gtAGG____anonstruct_D_Work_4 gtINDEX59)))
(flet ($x329 (= gtINDEX50 (select gtFIELD__bitsForTID0__gtAGG____anonstruct_D_Work_4 gtINDEX49)))
(flet ($x325 (= gtINDEX48 (select gtFIELD__bitsForTID0__gtAGG____anonstruct_D_Work_4 gtINDEX47)))
(flet ($x320 (= gtINDEX45 (select gtFIELD__bitsForTID0__gtAGG____anonstruct_D_Work_4 gtINDEX44)))
(flet ($x316 (= gtINDEX43 (select gtFIELD__bitsForTID0__gtAGG____anonstruct_D_Work_4 gtINDEX42)))
(flet ($x310 (= gtINDEX39 (select gtFIELD__bitsForTID0__gtAGG____anonstruct_D_Work_4 gtINDEX38)))
(flet ($x306 (= gtINDEX37 (select gtFIELD__bitsForTID0__gtAGG____anonstruct_D_Work_4 gtINDEX36)))
(flet ($x302 (= gtINDEX35 (select gtFIELD__bitsForTID0__gtAGG____anonstruct_D_Work_4 gtINDEX34)))
(flet ($x298 (= gtINDEX33 (select gtFIELD__bitsForTID0__gtAGG____anonstruct_D_Work_4 gtINDEX32)))
(flet ($x294 (= gtINDEX31 (select gtFIELD__bitsForTID0__gtAGG____anonstruct_D_Work_4 gtINDEX30)))
(flet ($x289 (= gtINDEX28 (select gtFIELD__bitsForTID0__gtAGG____anonstruct_D_Work_4 gtINDEX27)))
(flet ($x284 (= gtINDEX25 (select gtFIELD__bitsForTID0__gtAGG____anonstruct_D_Work_4 gtINDEX24)))
(flet ($x280 (= gtINDEX23 (select gtFIELD__bitsForTID0__gtAGG____anonstruct_D_Work_4 gtINDEX22)))
(flet ($x275 (= gtINDEX20 (select gtFIELD__bitsForTID0__gtAGG____anonstruct_D_Work_4 gtINDEX19)))
(flet ($x268 (= gtINDEX15 (select gtFIELD__bitsForTID0__gtAGG____anonstruct_D_Work_4 gtINDEX14)))
(flet ($x264 (= gtINDEX13 (select gtFIELD__bitsForTID0__gtAGG____anonstruct_D_Work_4 gtINDEX12)))
(flet ($x260 (= gtINDEX11 (select gtFIELD__bitsForTID0__gtAGG____anonstruct_D_Work_4 gtINDEX10)))
(flet ($x252 (= gtINDEX5 (select gtFIELD__bitsForTID0__gtAGG____anonstruct_D_Work_4 gtINDEX4)))
(flet ($x248 (= gtINDEX3 (select gtFIELD__bitsForTID0__gtAGG____anonstruct_D_Work_4 gtINDEX2)))
(flet ($x244 (= gtINDEX1 (select gtFIELD__bitsForTID0__gtAGG____anonstruct_D_Work_4 gtINDEX0)))
(let (?x238 (store gtFIELD__is_Eng__gtAGG____anonstruct_bitsForTID0_5 gtINDEX62 (extract[0:0] bv1[32])))
(flet ($x449 (iff constraint51 (= gtFIELD__is_Eng__gtAGG____anonstruct_bitsForTID0_5_1_ ?x238)))
(let (?x234 (zero_extend[31] (select gtFIELD__is_Eng__gtAGG____anonstruct_bitsForTID0_5 gtINDEX60)))
(let (?x230 (store gtFIELD__sh_rst__gtAGG____anonstruct_D_Work_4_1_ gtINDEX58 bv0[32]))
(flet ($x445 (iff constraint49 (= gtFIELD__sh_rst__gtAGG____anonstruct_D_Work_4_2_ ?x230)))
(flet ($x228 (= (select gtFIELD__sh_rst__gtAGG____anonstruct_D_Work_4_1_ gtINDEX57) bv1[32]))
(flet ($x224 (= (select gtFIELD__sent__gtAGG____anonstruct_D_Work_4 gtINDEX56) bv3[32]))
(flet ($x219 (= (select gtFIELD__sent__gtAGG____anonstruct_D_Work_4 gtINDEX55) bv2[32]))
(flet ($x215 (= (select gtFIELD__sent__gtAGG____anonstruct_D_Work_4 gtINDEX54) bv1[32]))
(flet ($x211 (= (select gtFIELD__sent__gtAGG____anonstruct_D_Work_4 gtINDEX53) (bvmul bv4294967295[32] bv1[32])))
(flet ($x205 (= (select gtFIELD__sent__gtAGG____anonstruct_D_Work_4 gtINDEX52) bv9[32]))
(flet ($x200 (= (select gtFIELD__sent__gtAGG____anonstruct_D_Work_4 gtINDEX51) bv4[32]))
(let (?x196 (zero_extend[31] (select gtFIELD__is_Eng__gtAGG____anonstruct_bitsForTID0_5 gtINDEX50)))
(let (?x190 (select gtFIELD__is_active_Eng__gtAGG____anonstruct_bitsForTID0_5 gtINDEX48))
(let (?x187 (store gtFIELD__temporalCounter_i5__gtAGG____anonstruct_D_Work_4 gtINDEX46 bv0[32]))
(flet ($x425 (iff constraint39 (= gtFIELD__temporalCounter_i5__gtAGG____anonstruct_D_Work_4_1_ ?x187)))
(let (?x123 (extract[1:0] bv1[32]))
(let (?x184 (store gtFIELD__is_PURI__gtAGG____anonstruct_bitsForTID0_5 gtINDEX45 ?x123))
(flet ($x423 (iff constraint38 (= gtFIELD__is_PURI__gtAGG____anonstruct_bitsForTID0_5_1_ ?x184)))
(let (?x181 (store gtFIELD__URIex__gtAGG____anonstruct_bitsForTID0_5 gtINDEX43 (extract[0:0] bv0[32])))
(flet ($x421 (iff constraint37 (= gtFIELD__URIex__gtAGG____anonstruct_bitsForTID0_5_1_ ?x181)))
(flet ($x178 (= gtFIELD__sh_rst__gtAGG____anonstruct_D_Work_4_1_ (store gtFIELD__sh_rst__gtAGG____anonstruct_D_Work_4 gtINDEX41 bv1[32])))
(flet ($x175 (= gtFIELD__n_t_a__gtAGG____anonstruct_D_Work_4_1_ (store gtFIELD__n_t_a__gtAGG____anonstruct_D_Work_4 gtINDEX40 bv0[32])))
(let (?x170 (select gtFIELD__is_PURI__gtAGG____anonstruct_bitsForTID0_5 gtINDEX39))
(let (?x165 (select gtFIELD__is_PURI__gtAGG____anonstruct_bitsForTID0_5 gtINDEX37))
(let (?x160 (select gtFIELD__is_active_PURI__gtAGG____anonstruct_bitsForTID0_5 gtINDEX35))
(let (?x154 (select gtFIELD__is_PVRP__gtAGG____anonstruct_bitsForTID0_5 gtINDEX33))
(let (?x149 (select gtFIELD__is_active_PVRP__gtAGG____anonstruct_bitsForTID0_5 gtINDEX31))
(let (?x146 (store gtFIELD__temporalCounter_i3__gtAGG____anonstruct_D_Work_4 gtINDEX29 bv0[32]))
(flet ($x397 (iff constraint25 (= gtFIELD__temporalCounter_i3__gtAGG____anonstruct_D_Work_4_1_ ?x146)))
(let (?x143 (store gtFIELD__is_PPVARP__gtAGG____anonstruct_bitsForTID0_5 gtINDEX28 (extract[1:0] bv2[32])))
(flet ($x395 (iff constraint24 (= gtFIELD__is_PPVARP__gtAGG____anonstruct_bitsForTID0_5_1_ ?x143)))
(flet ($x140 (= gtFIELD__n_t_b__gtAGG____anonstruct_D_Work_4_1_ (store gtFIELD__n_t_b__gtAGG____anonstruct_D_Work_4 gtINDEX26 bv0[32])))
(let (?x135 (select gtFIELD__is_PPVARP__gtAGG____anonstruct_bitsForTID0_5 gtINDEX25))
(let (?x130 (select gtFIELD__is_active_PPVARP__gtAGG____anonstruct_bitsForTID0_5 gtINDEX23))
(let (?x127 (store gtFIELD__temporalCounter_i2__gtAGG____anonstruct_D_Work_4 gtINDEX21 bv0[32]))
(flet ($x383 (iff constraint18 (= gtFIELD__temporalCounter_i2__gtAGG____anonstruct_D_Work_4_1_ ?x127)))
(let (?x124 (store gtFIELD__is_PLRI__gtAGG____anonstruct_bitsForTID0_5 gtINDEX20 ?x123))
(flet ($x381 (iff constraint17 (= gtFIELD__is_PLRI__gtAGG____anonstruct_bitsForTID0_5_1_ ?x124)))
(flet ($x121 (= gtFIELD__n_t_n__gtAGG____anonstruct_D_Work_4_1_ (store gtFIELD__n_t_n__gtAGG____anonstruct_D_Work_4 gtINDEX18 bv0[32])))
(flet ($x114 (= (select gtFIELD__comm__gtAGG____anonstruct_D_Work_4 gtINDEX17) bv0[32]))
(flet ($x111 (= (select gtFIELD__sent__gtAGG____anonstruct_D_Work_4 gtINDEX16) bv0[32]))
(let (?x106 (select gtFIELD__is_PLRI__gtAGG____anonstruct_bitsForTID0_5 gtINDEX15))
(let (?x101 (select gtFIELD__is_active_PLRI__gtAGG____anonstruct_bitsForTID0_5 gtINDEX13))
(let (?x98 (store gtFIELD__is_PAVI__gtAGG____anonstruct_bitsForTID0_5 gtINDEX11 (extract[2:0] bv1[32])))
(flet ($x365 (iff constraint9 (= gtFIELD__is_PAVI__gtAGG____anonstruct_bitsForTID0_5_1_ ?x98)))
(flet ($x92 (= (select gtFIELD__comm__gtAGG____anonstruct_D_Work_4 gtINDEX9) bv0[32]))
(flet ($x89 (= (select gtFIELD__sent__gtAGG____anonstruct_D_Work_4 gtINDEX8) bv0[32]))
(flet ($x85 (= (select gtFIELD__comm__gtAGG____anonstruct_D_Work_4 gtINDEX7) bv0[32]))
(flet ($x82 (= (select gtFIELD__sent__gtAGG____anonstruct_D_Work_4 gtINDEX6) bv0[32]))
(let (?x77 (zero_extend[29] (select gtFIELD__is_PAVI__gtAGG____anonstruct_bitsForTID0_5 gtINDEX5)))
(let (?x71 (zero_extend[29] (select gtFIELD__is_PAVI__gtAGG____anonstruct_bitsForTID0_5 gtINDEX3)))
(let (?x64 (select gtFIELD__is_active_PAVI__gtAGG____anonstruct_bitsForTID0_5 gtINDEX1))
(flet ($x576 (and (iff constraint0 (not (= sfEvent_ bv8[32]))) (iff constraint1 (not (= (zero_extend[31] ?x64) bv0[32]))) (iff constraint2 (not (= ?x71 bv1[32]))) (iff constraint3 (= ?x77 bv2[32])) (iff constraint4 $x82) (iff constraint5 (not $x85)) (iff constraint6 $x89) (iff constraint7 (not $x92)) (iff constraint8 (= sfEvent_ bv5[32])) $x365 (iff constraint10 (not (= (zero_extend[31] ?x101) bv0[32]))) (iff constraint11 (= (zero_extend[30] ?x106) bv1[32])) (iff constraint12 $x111) (iff constraint13 (not $x114)) (iff constraint14 (not (= sfEvent_ bv4[32]))) (iff constraint15 (= sfEvent_ bv5[32])) (iff constraint16 $x121) $x381 $x383 (iff constraint19 (not (= (zero_extend[31] ?x130) bv0[32]))) (iff constraint20 (= (zero_extend[30] ?x135) bv1[32])) (iff constraint21 (not (= sfEvent_ bv4[32]))) (iff constraint22 (= sfEvent_ bv5[32])) (iff constraint23 $x140) $x395 $x397 (iff constraint26 (not (= (zero_extend[31] ?x149) bv0[32]))) (iff constraint27 (= (zero_extend[30] ?x154) bv1[32])) (iff constraint28 (not (= sfEvent_ bv0[32]))) (iff constraint29 (not (= sfEvent_ bv4[32]))) (iff constraint30 (not (= (zero_extend[31] ?x160) bv0[32]))) (iff constraint31 (not (= (zero_extend[30] ?x165) bv1[32]))) (iff constraint32 (= (zero_extend[30] ?x170) bv2[32])) (iff constraint33 (not (= sfEvent_ bv4[32]))) (iff constraint34 (= sfEvent_ bv5[32])) (iff constraint35 $x175) (iff constraint36 $x178) $x421 $x423 $x425 (iff constraint40 (not (= (zero_extend[31] ?x190) bv0[32]))) (iff constraint41 (= ?x196 bv1[32])) (iff constraint42 (not $x200)) (iff constraint43 (not $x205)) (iff constraint44 (not $x211)) (iff constraint45 (not $x215)) (iff constraint46 (not $x219)) (iff constraint47 (not $x224)) (iff constraint48 $x228) $x445 (iff constraint50 (= ?x234 bv1[32])) $x449 (iff constraint52 (= gtINDEX0 gtAGG__rtDWork)) (iff constraint53 $x244) (iff constraint54 (= gtINDEX2 gtAGG__rtDWork)) (iff constraint55 $x248) (iff constraint56 (= gtINDEX4 gtAGG__rtDWork)) (iff constraint57 $x252) (iff constraint58 (= gtINDEX6 gtAGG__rtDWork)) (iff constraint59 (= gtINDEX7 gtAGG__rtDWork)) (iff constraint60 (= gtINDEX8 gtAGG__rtDWork)) (iff constraint61 (= gtINDEX9 gtAGG__rtDWork)) (iff constraint62 (= gtINDEX10 gtAGG__rtDWork)) (iff constraint63 $x260) (iff constraint64 (= gtINDEX12 gtAGG__rtDWork)) (iff constraint65 $x264) (iff constraint66 (= gtINDEX14 gtAGG__rtDWork)) (iff constraint67 $x268) (iff constraint68 (= gtINDEX16 gtAGG__rtDWork)) (iff constraint69 (= gtINDEX17 gtAGG__rtDWork)) (iff constraint70 (= gtINDEX18 gtAGG__rtDWork)) (iff constraint71 (= gtINDEX19 gtAGG__rtDWork)) (iff constraint72 $x275) (iff constraint73 (= gtINDEX21 gtAGG__rtDWork)) (iff constraint74 (= gtINDEX22 gtAGG__rtDWork)) (iff constraint75 $x280) (iff constraint76 (= gtINDEX24 gtAGG__rtDWork)) (iff constraint77 $x284) (iff constraint78 (= gtINDEX26 gtAGG__rtDWork)) (iff constraint79 (= gtINDEX27 gtAGG__rtDWork)) (iff constraint80 $x289) (iff constraint81 (= gtINDEX29 gtAGG__rtDWork)) (iff constraint82 (= gtINDEX30 gtAGG__rtDWork)) (iff constraint83 $x294) (iff constraint84 (= gtINDEX32 gtAGG__rtDWork)) (iff constraint85 $x298) (iff constraint86 (= gtINDEX34 gtAGG__rtDWork)) (iff constraint87 $x302) (iff constraint88 (= gtINDEX36 gtAGG__rtDWork)) (iff constraint89 $x306) (iff constraint90 (= gtINDEX38 gtAGG__rtDWork)) (iff constraint91 $x310) (iff constraint92 (= gtINDEX40 gtAGG__rtDWork)) (iff constraint93 (= gtINDEX41 gtAGG__rtDWork)) (iff constraint94 (= gtINDEX42 gtAGG__rtDWork)) (iff constraint95 $x316) (iff constraint96 (= gtINDEX44 gtAGG__rtDWork)) (iff constraint97 $x320) (iff constraint98 (= gtINDEX46 gtAGG__rtDWork)) (iff constraint99 (= gtINDEX47 gtAGG__rtDWork)) (iff constraint100 $x325) (iff constraint101 (= gtINDEX49 gtAGG__rtDWork)) (iff constraint102 $x329) (iff constraint103 (= gtINDEX51 gtAGG__rtDWork)) (iff constraint104 (= gtINDEX52 gtAGG__rtDWork)) (iff constraint105 (= gtINDEX53 gtAGG__rtDWork)) (iff constraint106 (= gtINDEX54 gtAGG__rtDWork)) (iff constraint107 (= gtINDEX55 gtAGG__rtDWork)) (iff constraint108 (= gtINDEX56 gtAGG__rtDWork)) (iff constraint109 (= gtINDEX57 gtAGG__rtDWork)) (iff constraint110 (= gtINDEX58 gtAGG__rtDWork)) (iff constraint111 (= gtINDEX59 gtAGG__rtDWork)) (iff constraint112 $x341) (iff constraint113 (= gtINDEX61 gtAGG__rtDWork)) (iff constraint114 $x345)))
(and $x576 $x577)))))))))))))))))))))))))))))))))))))))))))))))))))))))))))))))))))))))))))))
)
